&CONTROL
calculation =  'vc-relax'
restart_mode =  'from_scratch'
outdir = './tmp/'
pseudo_dir =  '/home/zsh/pseudo/pbe'
prefix = 'pw'
tprnfor=.true.
tstress=.true.
etot_conv_thr=1.d-12
forc_conv_thr=1.d-8
/
&SYSTEM
ibrav= 2
celldm(1) =      10.329618757479
nat =   2
ntyp =  1
ecutwfc =  100
ecutrho =  500
occupations = 'smearing'
smearing ='gaussian'
degauss = 0.001
/
&ELECTRONS
conv_thr=1.d-8
/
&IONS
/
&CELL
cell_dofree='2Dxy'
press_conv_thr=1.d-1
/
